c leafs=62, vars=15, seed=1, tickle=None
p cnf 723 1939                                                                
e 16 17 18 19 20 21 22 23 24 25 26 27 28 29 30 31 32 33 34 35 36 37 38 39 40 41 42 43 44 45 46 47 48 49 50 51 52 53 54 55 56 57 58 59 60 61 62 63 64 65 66 67 68 69 70 71 72 73 74 75 76 77  0
a 1 2 3 4 5 6 7 8 9 10 11 12 13 14 15  0
e 78 79 80 81 82 83 84 85 86 87 88 89 90 91 92 93 94 95 96 97 98 99 100 101 102 103 104 105 106 107 108 109 110 111 112 113 114 115 116 117 118 119 120 121 122 123 124 125 126 127 128 129 130 131 132 133 134 135 136 137 138 139 140 141 142 143 144 145 146 147 148 149 150 151 152 153 154 155 156 157 158 159 160 161 162 163 164 165 166 167 168 169 170 171 172 173 174 175 176 177 178 179 180 181 182 183 184 185 186 187 188 189 190 191 192 193 194 195 196 197 198 199 200 201 202 203 204 205 206 207 208 209 210 211 212 213 214 215 216 217 218 219 220 221 222 223 224 225 226 227 228 229 230 231 232 233 234 235 236 237 238 239 240 241 242 243 244 245 246 247 248 249 250 251 252 253 254 255 256 257 258 259 260 261 262 263 264 265 266 267 268 269 270 271 272 273 274 275 276 277 278 279 280 281 282 283 284 285 286 287 288 289 290 291 292 293 294 295 296 297 298 299 300 301 302 303 304 305 306 307 308 309 310 311 312 313 314 315 316 317 318 319 320 321 322 323 324 325 326 327 328 329 330 331 332 333 334 335 336 337 338 339 340 341 342 343 344 345 346 347 348 349 350 351 352 353 354 355 356 357 358 359 360 361 362 363 364 365 366 367 368 369 370 371 372 373 374 375 376 377 378 379 380 381 382 383 384 385 386 387 388 389 390 391 392 393 394 395 396 397 398 399 400 401 402 403 404 405 406 407 408 409 410 411 412 413 414 415 416 417 418 419 420 421 422 423 424 425 426 427 428 429 430 431 432 433 434 435 436 437 438 439 440 441 442 443 444 445 446 447 448 449 450 451 452 453 454 455 456 457 458 459 460 461 462 463 464 465 466 467 468 469 470 471 472 473 474 475 476 477 478 479 480 481 482 483 484 485 486 487 488 489 490 491 492 493 494 495 496 497 498 499 500 501 502 503 504 505 506 507 508 509 510 511 512 513 514 515 516 517 518 519 520 521 522 523 524 525 526 527 528 529 530 531 532 533 534 535 536 537 538 539 540 541 542 543 544 545 546 547 548 549 550 551 552 553 554 555 556 557 558 559 560 561 562 563 564 565 566 567 568 569 570 571 572 573 574 575 576 577 578 579 580 581 582 583 584 585 586 587 588 589 590 591 592 593 594 595 596 597 598 599 600 601 602 603 604 605 606 607 608 609 610 611 612 613 614 615 616 617 618 619 620 621 622 623 624 625 626 627 628 629 630 631 632 633 634 635 636 637 638 639 640 641 642 643 644 645 646 647 648 649 650 651 652 653 654 655 656 657 658 659 660 661 662 663 664 665 666 667 668 669 670 671 672 673 674 675 676 677 678 679 680 681 682 683 684 685 686 687 688 689 690 691 692 693 694 695 696 697 698 699 700 701 702 703 704 705 706 707 708 709 710 711 712 713 714 715 716 717 718 719 720 721 722 723  0
723  0
78 11 3  0
-78 -11  0
-78 -3  0
79 -3 -11  0
-79 3  0
-79 11  0
-80 1 9  0
80 -1  0
80 -9  0
-81 -9 -1  0
81 9  0
81 1  0
-82 -12 -2  0
82 12  0
82 2  0
-83 2 12  0
83 -2  0
83 -12  0
-84 -15 -2  0
84 15  0
84 2  0
-85 2 15  0
85 -2  0
85 -15  0
-86 6 7  0
86 -6  0
86 -7  0
-87 -7 -6  0
87 7  0
87 6  0
-88 -13 4  0
88 13  0
88 -4  0
-89 -4 13  0
89 4  0
89 -13  0
-90 -11 3  0
90 11  0
90 -3  0
-91 -3 11  0
91 3  0
91 -11  0
92 6 -7  0
-92 -6  0
-92 7  0
93 7 -6  0
-93 -7  0
-93 6  0
-94 -8 3  0
94 8  0
94 -3  0
-95 -3 8  0
95 3  0
95 -8  0
-96 2 10  0
96 -2  0
96 -10  0
-97 -10 -2  0
97 10  0
97 2  0
98 15 1  0
-98 -15  0
-98 -1  0
99 -1 -15  0
-99 1  0
-99 15  0
100 4 -5  0
-100 -4  0
-100 5  0
101 5 -4  0
-101 -5  0
-101 4  0
102 -4 -5  0
-102 4  0
-102 5  0
103 5 4  0
-103 -5  0
-103 -4  0
104 7 -9  0
-104 -7  0
-104 9  0
105 9 -7  0
-105 -9  0
-105 7  0
106 -1 -3  0
-106 1  0
-106 3  0
107 3 1  0
-107 -3  0
-107 -1  0
-108 -1 9  0
108 1  0
108 -9  0
-109 -9 1  0
109 9  0
109 -1  0
110 3 -10  0
-110 -3  0
-110 10  0
111 10 -3  0
-111 -10  0
-111 3  0
-112 -11 15  0
112 11  0
112 -15  0
-113 -15 11  0
113 15  0
113 -11  0
-114 5 11  0
114 -5  0
114 -11  0
-115 -11 5  0
115 11  0
115 -5  0
-116 -12 6  0
116 12  0
116 -6  0
-117 -6 12  0
117 6  0
117 -12  0
-118 -7 -2  0
118 7  0
118 2  0
-119 2 7  0
119 -2  0
119 -7  0
-120 6 12  0
120 -6  0
120 -12  0
-121 -12 -6  0
121 12  0
121 6  0
122 -3 -60  0
-122 3  0
-122 60  0
123 60 -12  0
-123 -60  0
-123 12  0
124 5 -61  0
-124 -5  0
-124 61  0
125 61 11  0
-125 -61  0
-125 -11  0
-126 2 58  0
126 -2  0
126 -58  0
-127 -58 -10  0
127 58  0
127 10  0
-128 8 59  0
128 -8  0
128 -59  0
-129 -59 15  0
129 59  0
129 -15  0
130 12 -55  0
-130 -12  0
-130 55  0
131 55 3  0
-131 -55  0
-131 -3  0
132 -9 -54  0
-132 9  0
-132 54  0
133 54 -6  0
-133 -54  0
-133 6  0
-134 -56 8  0
134 56  0
134 -8  0
-135 13 56  0
135 -13  0
135 -56  0
-136 -57 4  0
136 57  0
136 -4  0
-137 -9 57  0
137 9  0
137 -57  0
-138 15 52  0
138 -15  0
138 -52  0
-139 -52 13  0
139 52  0
139 -13  0
-140 -53 -5  0
140 53  0
140 5  0
-141 4 53  0
141 -4  0
141 -53  0
142 51 -7  0
-142 -51  0
-142 7  0
143 -14 -51  0
-143 14  0
-143 51  0
144 -6 -50  0
-144 6  0
-144 50  0
145 50 11  0
-145 -50  0
-145 -11  0
-146 -47 -5  0
146 47  0
146 5  0
-147 14 47  0
147 -14  0
147 -47  0
148 49 2  0
-148 -49  0
-148 -2  0
149 1 -49  0
-149 -1  0
-149 49  0
150 10 -48  0
-150 -10  0
-150 48  0
151 48 15  0
-151 -48  0
-151 -15  0
-152 5 72  0
152 -5  0
152 -72  0
-153 -72 -2  0
153 72  0
153 2  0
-154 -73 -10  0
154 73  0
154 10  0
-155 9 73  0
155 -9  0
155 -73  0
-156 15 70  0
156 -15  0
156 -70  0
-157 -70 -8  0
157 70  0
157 8  0
-158 -71 -13  0
158 71  0
158 13  0
-159 -12 71  0
159 12  0
159 -71  0
160 -1 -77  0
-160 1  0
-160 77  0
161 77 -2  0
-161 -77  0
-161 2  0
162 15 -76  0
-162 -15  0
-162 76  0
163 76 12  0
-163 -76  0
-163 -12  0
164 75 5  0
-164 -75  0
-164 -5  0
165 -2 -75  0
-165 2  0
-165 75  0
166 4 -74  0
-166 -4  0
-166 74  0
167 74 10  0
-167 -74  0
-167 -10  0
-168 -69 11  0
168 69  0
168 -11  0
-169 10 69  0
169 -10  0
169 -69  0
-170 -68 -6  0
170 68  0
170 6  0
-171 -1 68  0
171 1  0
171 -68  0
-172 -66 8  0
172 66  0
172 -8  0
-173 -11 66  0
173 11  0
173 -66  0
-174 7 67  0
174 -7  0
174 -67  0
-175 -67 3  0
175 67  0
175 -3  0
-176 5 63  0
176 -5  0
176 -63  0
-177 -63 -4  0
177 63  0
177 4  0
-178 -62 12  0
178 62  0
178 -12  0
-179 -1 62  0
179 1  0
179 -62  0
180 65 -5  0
-180 -65  0
-180 5  0
181 7 -65  0
-181 -7  0
-181 65  0
182 64 9  0
-182 -64  0
-182 -9  0
183 -2 -64  0
-183 2  0
-183 64  0
-184 -10 17  0
184 10  0
184 -17  0
-185 -17 -5  0
185 17  0
185 5  0
-186 -16 -10  0
186 16  0
186 10  0
-187 8 16  0
187 -8  0
187 -16  0
188 19 -10  0
-188 -19  0
-188 10  0
189 2 -19  0
-189 -2  0
-189 19  0
190 18 -4  0
-190 -18  0
-190 4  0
191 -12 -18  0
-191 12  0
-191 18  0
192 -8 -21  0
-192 8  0
-192 21  0
193 21 1  0
-193 -21  0
-193 -1  0
194 3 -20  0
-194 -3  0
-194 20  0
195 20 14  0
-195 -20  0
-195 -14  0
-196 -22 10  0
196 22  0
196 -10  0
-197 6 22  0
197 -6  0
197 -22  0
-198 -23 2  0
198 23  0
198 -2  0
-199 -15 23  0
199 15  0
199 -23  0
200 25 -4  0
-200 -25  0
-200 4  0
201 2 -25  0
-201 -2  0
-201 25  0
202 24 1  0
-202 -24  0
-202 -1  0
203 -7 -24  0
-203 7  0
-203 24  0
-204 3 26  0
204 -3  0
204 -26  0
-205 -26 5  0
205 26  0
205 -5  0
-206 6 27  0
206 -6  0
206 -27  0
-207 -27 -11  0
207 27  0
207 11  0
-208 -29 14  0
208 29  0
208 -14  0
-209 -9 29  0
209 9  0
209 -29  0
-210 -14 28  0
210 14  0
210 -28  0
-211 -28 -1  0
211 28  0
211 1  0
212 31 -10  0
-212 -31  0
-212 10  0
213 6 -31  0
-213 -6  0
-213 31  0
214 11 -30  0
-214 -11  0
-214 30  0
215 30 -12  0
-215 -30  0
-215 12  0
-216 -15 34  0
216 15  0
216 -34  0
-217 -34 8  0
217 34  0
217 -8  0
-218 11 33  0
218 -11  0
218 -33  0
-219 -33 -1  0
219 33  0
219 1  0
220 32 -5  0
-220 -32  0
-220 5  0
221 8 -32  0
-221 -8  0
-221 32  0
222 9 -38  0
-222 -9  0
-222 38  0
223 38 13  0
-223 -38  0
-223 -13  0
224 -7 -37  0
-224 7  0
-224 37  0
225 37 6  0
-225 -37  0
-225 -6  0
226 35 -10  0
-226 -35  0
-226 10  0
227 -14 -35  0
-227 14  0
-227 35  0
228 1 -36  0
-228 -1  0
-228 36  0
229 36 3  0
-229 -36  0
-229 -3  0
230 2 -41  0
-230 -2  0
-230 41  0
231 41 -12  0
-231 -41  0
-231 12  0
232 42 10  0
-232 -42  0
-232 -10  0
233 15 -42  0
-233 -15  0
-233 42  0
234 40 -8  0
-234 -40  0
-234 8  0
235 1 -40  0
-235 -1  0
-235 40  0
236 -4 -39  0
-236 4  0
-236 39  0
237 39 -11  0
-237 -39  0
-237 11  0
238 -11 -46  0
-238 11  0
-238 46  0
239 46 6  0
-239 -46  0
-239 -6  0
240 -1 -45  0
-240 1  0
-240 45  0
241 45 -8  0
-241 -45  0
-241 8  0
242 -14 -44  0
-242 14  0
-242 44  0
243 44 -15  0
-243 -44  0
-243 15  0
244 3 -43  0
-244 -3  0
-244 43  0
245 43 10  0
-245 -43  0
-245 -10  0
246 -4 -13  0
-246 4  0
-246 13  0
247 13 4  0
-247 -13  0
-247 -4  0
-248 -2 12  0
248 2  0
248 -12  0
-249 -12 2  0
249 12  0
249 -2  0
-250 78 79  0
250 -78  0
250 -79  0
251 -80 -81  0
-251 80  0
-251 81  0
252 -82 -83  0
-252 82  0
-252 83  0
253 -84 -85  0
-253 84  0
-253 85  0
254 -86 -87  0
-254 86  0
-254 87  0
255 -88 -89  0
-255 88  0
-255 89  0
256 -90 -91  0
-256 90  0
-256 91  0
-257 92 93  0
257 -92  0
257 -93  0
258 -94 -95  0
-258 94  0
-258 95  0
259 -96 -97  0
-259 96  0
-259 97  0
-260 98 99  0
260 -98  0
260 -99  0
-261 100 101  0
261 -100  0
261 -101  0
-262 102 103  0
262 -102  0
262 -103  0
-263 104 105  0
263 -104  0
263 -105  0
-264 106 107  0
264 -106  0
264 -107  0
265 -108 -109  0
-265 108  0
-265 109  0
-266 110 111  0
266 -110  0
266 -111  0
267 -112 -113  0
-267 112  0
-267 113  0
-268 15 114  0
268 -15  0
268 -114  0
-269 -15 115  0
269 15  0
269 -115  0
270 -116 -117  0
-270 116  0
-270 117  0
271 -118 -119  0
-271 118  0
-271 119  0
272 -120 -121  0
-272 120  0
-272 121  0
-273 122 123  0
273 -122  0
273 -123  0
-274 124 125  0
274 -124  0
274 -125  0
275 -126 -127  0
-275 126  0
-275 127  0
276 -128 -129  0
-276 128  0
-276 129  0
-277 130 131  0
277 -130  0
277 -131  0
-278 132 133  0
278 -132  0
278 -133  0
279 -134 -135  0
-279 134  0
-279 135  0
280 -136 -137  0
-280 136  0
-280 137  0
281 -138 -139  0
-281 138  0
-281 139  0
282 -140 -141  0
-282 140  0
-282 141  0
-283 142 143  0
283 -142  0
283 -143  0
-284 144 145  0
284 -144  0
284 -145  0
285 -146 -147  0
-285 146  0
-285 147  0
-286 148 149  0
286 -148  0
286 -149  0
-287 150 151  0
287 -150  0
287 -151  0
288 -152 -153  0
-288 152  0
-288 153  0
289 -154 -155  0
-289 154  0
-289 155  0
290 -156 -157  0
-290 156  0
-290 157  0
291 -158 -159  0
-291 158  0
-291 159  0
-292 160 161  0
292 -160  0
292 -161  0
-293 162 163  0
293 -162  0
293 -163  0
-294 164 165  0
294 -164  0
294 -165  0
-295 166 167  0
295 -166  0
295 -167  0
296 -168 -169  0
-296 168  0
-296 169  0
297 -170 -171  0
-297 170  0
-297 171  0
298 -172 -173  0
-298 172  0
-298 173  0
299 -174 -175  0
-299 174  0
-299 175  0
300 -176 -177  0
-300 176  0
-300 177  0
301 -178 -179  0
-301 178  0
-301 179  0
-302 180 181  0
302 -180  0
302 -181  0
-303 182 183  0
303 -182  0
303 -183  0
304 -184 -185  0
-304 184  0
-304 185  0
305 -186 -187  0
-305 186  0
-305 187  0
-306 188 189  0
306 -188  0
306 -189  0
-307 190 191  0
307 -190  0
307 -191  0
-308 192 193  0
308 -192  0
308 -193  0
-309 194 195  0
309 -194  0
309 -195  0
310 -196 -197  0
-310 196  0
-310 197  0
311 -198 -199  0
-311 198  0
-311 199  0
-312 200 201  0
312 -200  0
312 -201  0
-313 202 203  0
313 -202  0
313 -203  0
314 -204 -205  0
-314 204  0
-314 205  0
315 -206 -207  0
-315 206  0
-315 207  0
316 -208 -209  0
-316 208  0
-316 209  0
317 -210 -211  0
-317 210  0
-317 211  0
-318 212 213  0
318 -212  0
318 -213  0
-319 214 215  0
319 -214  0
319 -215  0
320 -216 -217  0
-320 216  0
-320 217  0
321 -218 -219  0
-321 218  0
-321 219  0
-322 220 221  0
322 -220  0
322 -221  0
-323 222 223  0
323 -222  0
323 -223  0
-324 224 225  0
324 -224  0
324 -225  0
-325 226 227  0
325 -226  0
325 -227  0
-326 228 229  0
326 -228  0
326 -229  0
-327 230 231  0
327 -230  0
327 -231  0
-328 232 233  0
328 -232  0
328 -233  0
-329 234 235  0
329 -234  0
329 -235  0
-330 236 237  0
330 -236  0
330 -237  0
-331 238 239  0
331 -238  0
331 -239  0
-332 240 241  0
332 -240  0
332 -241  0
-333 242 243  0
333 -242  0
333 -243  0
-334 244 245  0
334 -244  0
334 -245  0
-335 246 247  0
335 -246  0
335 -247  0
336 -248 -249  0
-336 248  0
-336 249  0
337 -2 -250  0
-337 2  0
-337 250  0
338 2 -250  0
-338 -2  0
-338 250  0
-339 -5 253  0
339 5  0
339 -253  0
-340 -12 255  0
340 12  0
340 -255  0
-341 12 255  0
341 -12  0
341 -255  0
-342 253 256  0
342 -253  0
342 -256  0
343 -13 -259  0
-343 13  0
-343 259  0
344 13 -259  0
-344 -13  0
-344 259  0
-345 260 261  0
345 -260  0
345 -261  0
346 1 -262  0
-346 -1  0
-346 262  0
347 -1 -262  0
-347 1  0
-347 262  0
-348 6 264  0
348 -6  0
348 -264  0
-349 -6 264  0
349 6  0
349 -264  0
-350 7 266  0
350 -7  0
350 -266  0
-351 -7 266  0
351 7  0
351 -266  0
352 5 -267  0
-352 -5  0
-352 267  0
353 -268 -269  0
-353 268  0
-353 269  0
354 -1 -259  0
-354 1  0
-354 259  0
355 1 -259  0
-355 -1  0
-355 259  0
356 -9 -270  0
-356 9  0
-356 270  0
357 9 -270  0
-357 -9  0
-357 270  0
-358 -9 272  0
358 9  0
358 -272  0
-359 9 272  0
359 -9  0
359 -272  0
360 -273 -274  0
-360 273  0
-360 274  0
361 273 274  0
-361 -273  0
-361 -274  0
362 -275 -276  0
-362 275  0
-362 276  0
363 276 275  0
-363 -276  0
-363 -275  0
364 -277 -278  0
-364 277  0
-364 278  0
365 278 277  0
-365 -278  0
-365 -277  0
366 -279 -280  0
-366 279  0
-366 280  0
367 279 280  0
-367 -279  0
-367 -280  0
-368 281 282  0
368 -281  0
368 -282  0
-369 -282 -281  0
369 282  0
369 281  0
-370 283 284  0
370 -283  0
370 -284  0
-371 -283 -284  0
371 283  0
371 284  0
-372 286 287  0
372 -286  0
372 -287  0
-373 -287 -286  0
373 287  0
373 286  0
374 -288 -289  0
-374 288  0
-374 289  0
375 289 288  0
-375 -289  0
-375 -288  0
376 -290 -291  0
-376 290  0
-376 291  0
377 291 290  0
-377 -291  0
-377 -290  0
378 -292 -293  0
-378 292  0
-378 293  0
379 293 292  0
-379 -293  0
-379 -292  0
380 -294 -295  0
-380 294  0
-380 295  0
381 295 294  0
-381 -295  0
-381 -294  0
382 -296 -297  0
-382 296  0
-382 297  0
383 297 296  0
-383 -297  0
-383 -296  0
384 -298 -299  0
-384 298  0
-384 299  0
385 299 298  0
-385 -299  0
-385 -298  0
386 -300 -301  0
-386 300  0
-386 301  0
387 301 300  0
-387 -301  0
-387 -300  0
388 -302 -303  0
-388 302  0
-388 303  0
389 302 303  0
-389 -302  0
-389 -303  0
-390 304 305  0
390 -304  0
390 -305  0
-391 -304 -305  0
391 304  0
391 305  0
-392 306 307  0
392 -306  0
392 -307  0
-393 -306 -307  0
393 306  0
393 307  0
-394 308 309  0
394 -308  0
394 -309  0
-395 -308 -309  0
395 308  0
395 309  0
-396 310 311  0
396 -310  0
396 -311  0
-397 -311 -310  0
397 311  0
397 310  0
-398 312 313  0
398 -312  0
398 -313  0
-399 -312 -313  0
399 312  0
399 313  0
-400 314 315  0
400 -314  0
400 -315  0
-401 -315 -314  0
401 315  0
401 314  0
-402 316 317  0
402 -316  0
402 -317  0
-403 -317 -316  0
403 317  0
403 316  0
-404 318 319  0
404 -318  0
404 -319  0
-405 -319 -318  0
405 319  0
405 318  0
406 -320 -321  0
-406 320  0
-406 321  0
407 321 320  0
-407 -321  0
-407 -320  0
408 -323 -324  0
-408 323  0
-408 324  0
409 324 323  0
-409 -324  0
-409 -323  0
410 -325 -326  0
-410 325  0
-410 326  0
411 325 326  0
-411 -325  0
-411 -326  0
412 -327 -328  0
-412 327  0
-412 328  0
413 327 328  0
-413 -327  0
-413 -328  0
414 -329 -330  0
-414 329  0
-414 330  0
415 330 329  0
-415 -330  0
-415 -329  0
416 -331 -332  0
-416 331  0
-416 332  0
417 332 331  0
-417 -332  0
-417 -331  0
418 -333 -334  0
-418 333  0
-418 334  0
419 334 333  0
-419 -334  0
-419 -333  0
-420 12 335  0
420 -12  0
420 -335  0
-421 -12 335  0
421 12  0
421 -335  0
422 -7 -337  0
-422 7  0
-422 337  0
423 7 -338  0
-423 -7  0
-423 338  0
-424 -6 340  0
424 6  0
424 -340  0
-425 6 341  0
425 -6  0
425 -341  0
-426 8 343  0
426 -8  0
426 -343  0
-427 -8 344  0
427 8  0
427 -344  0
428 -15 -346  0
-428 15  0
-428 346  0
429 15 -347  0
-429 -15  0
-429 347  0
430 15 -348  0
-430 -15  0
-430 348  0
431 -15 -349  0
-431 15  0
-431 349  0
432 9 -350  0
-432 -9  0
-432 350  0
433 -9 -351  0
-433 9  0
-433 351  0
-434 -11 354  0
434 11  0
434 -354  0
-435 11 355  0
435 -11  0
435 -355  0
-436 1 356  0
436 -1  0
436 -356  0
-437 -1 357  0
437 1  0
437 -357  0
-438 1 358  0
438 -1  0
438 -358  0
-439 -1 359  0
439 1  0
439 -359  0
-440 360 361  0
440 -360  0
440 -361  0
-441 362 363  0
441 -362  0
441 -363  0
-442 364 365  0
442 -364  0
442 -365  0
-443 366 367  0
443 -366  0
443 -367  0
444 -368 -369  0
-444 368  0
-444 369  0
445 -370 -371  0
-445 370  0
-445 371  0
446 -372 -373  0
-446 372  0
-446 373  0
-447 374 375  0
447 -374  0
447 -375  0
-448 376 377  0
448 -376  0
448 -377  0
-449 378 379  0
449 -378  0
449 -379  0
-450 380 381  0
450 -380  0
450 -381  0
-451 382 383  0
451 -382  0
451 -383  0
-452 384 385  0
452 -384  0
452 -385  0
-453 386 387  0
453 -386  0
453 -387  0
-454 388 389  0
454 -388  0
454 -389  0
455 -390 -391  0
-455 390  0
-455 391  0
456 -392 -393  0
-456 392  0
-456 393  0
457 -394 -395  0
-457 394  0
-457 395  0
458 -396 -397  0
-458 396  0
-458 397  0
459 -398 -399  0
-459 398  0
-459 399  0
460 -400 -401  0
-460 400  0
-460 401  0
461 -402 -403  0
-461 402  0
-461 403  0
462 -404 -405  0
-462 404  0
-462 405  0
-463 406 407  0
463 -406  0
463 -407  0
-464 408 409  0
464 -408  0
464 -409  0
-465 410 411  0
465 -410  0
465 -411  0
-466 412 413  0
466 -412  0
466 -413  0
-467 414 415  0
467 -414  0
467 -415  0
-468 416 417  0
468 -416  0
468 -417  0
-469 418 419  0
469 -418  0
469 -419  0
470 6 -420  0
-470 -6  0
-470 420  0
471 -6 -421  0
-471 6  0
-471 421  0
-472 422 423  0
472 -422  0
472 -423  0
473 -424 -425  0
-473 424  0
-473 425  0
474 -426 -427  0
-474 426  0
-474 427  0
-475 428 429  0
475 -428  0
475 -429  0
-476 430 431  0
476 -430  0
476 -431  0
-477 432 433  0
477 -432  0
477 -433  0
478 -434 -435  0
-478 434  0
-478 435  0
479 -436 -437  0
-479 436  0
-479 437  0
480 -438 -439  0
-480 438  0
-480 439  0
481 -440 -441  0
-481 440  0
-481 441  0
-482 442 443  0
482 -442  0
482 -443  0
483 -444 -445  0
-483 444  0
-483 445  0
-484 285 446  0
484 -285  0
484 -446  0
-485 447 448  0
485 -447  0
485 -448  0
486 -449 -450  0
-486 449  0
-486 450  0
-487 451 452  0
487 -451  0
487 -452  0
488 -453 -454  0
-488 453  0
-488 454  0
489 -455 -456  0
-489 455  0
-489 456  0
490 -457 -458  0
-490 457  0
-490 458  0
491 -459 -460  0
-491 459  0
-491 460  0
492 -461 -462  0
-492 461  0
-492 462  0
-493 463 322  0
493 -463  0
493 -322  0
-494 464 465  0
494 -464  0
494 -465  0
-495 466 467  0
495 -466  0
495 -467  0
-496 468 469  0
496 -468  0
496 -469  0
-497 470 471  0
497 -470  0
497 -471  0
498 -473 -342  0
-498 473  0
-498 342  0
499 342 473  0
-499 -342  0
-499 -473  0
500 -474 -345  0
-500 474  0
-500 345  0
501 474 -475  0
-501 -474  0
-501 475  0
-502 477 352  0
502 -477  0
502 -352  0
-503 353 -477  0
503 -353  0
503 477  0
504 11 -479  0
-504 -11  0
-504 479  0
505 -11 479  0
-505 11  0
-505 -479  0
-506 480 -271  0
506 -480  0
506 271  0
507 -481 -482  0
-507 481  0
-507 482  0
508 481 482  0
-508 -481  0
-508 -482  0
509 -483 -484  0
-509 483  0
-509 484  0
510 484 483  0
-510 -484  0
-510 -483  0
511 -485 -486  0
-511 485  0
-511 486  0
512 485 486  0
-512 -485  0
-512 -486  0
513 -487 -488  0
-513 487  0
-513 488  0
514 488 487  0
-514 -488  0
-514 -487  0
515 -489 -490  0
-515 489  0
-515 490  0
516 489 490  0
-516 -489  0
-516 -490  0
517 -491 -492  0
-517 491  0
-517 492  0
518 491 492  0
-518 -491  0
-518 -492  0
519 -493 -494  0
-519 493  0
-519 494  0
520 493 494  0
-520 -493  0
-520 -494  0
521 -495 -496  0
-521 495  0
-521 496  0
522 496 495  0
-522 -496  0
-522 -495  0
523 342 -497  0
-523 -342  0
-523 497  0
524 497 -342  0
-524 -497  0
-524 342  0
-525 498 499  0
525 -498  0
525 -499  0
-526 500 501  0
526 -500  0
526 -501  0
527 -502 -503  0
-527 502  0
-527 503  0
-528 504 505  0
528 -504  0
528 -505  0
-529 507 508  0
529 -507  0
529 -508  0
-530 509 510  0
530 -509  0
530 -510  0
-531 511 512  0
531 -511  0
531 -512  0
-532 513 514  0
532 -513  0
532 -514  0
-533 515 516  0
533 -515  0
533 -516  0
-534 517 518  0
534 -517  0
534 -518  0
-535 519 520  0
535 -519  0
535 -520  0
-536 521 522  0
536 -521  0
536 -522  0
-537 523 524  0
537 -523  0
537 -524  0
538 13 -525  0
-538 -13  0
-538 525  0
539 -13 -525  0
-539 13  0
-539 525  0
540 254 -525  0
-540 -254  0
-540 525  0
541 12 -526  0
-541 -12  0
-541 526  0
542 -12 -526  0
-542 12  0
-542 526  0
543 -263 -526  0
-543 263  0
-543 526  0
-544 -3 527  0
544 3  0
544 -527  0
-545 3 527  0
545 -3  0
545 -527  0
-546 -6 527  0
546 6  0
546 -527  0
-547 6 527  0
547 -6  0
547 -527  0
-548 3 528  0
548 -3  0
548 -528  0
-549 -3 -528  0
549 3  0
549 528  0
-550 529 530  0
550 -529  0
550 -530  0
551 -531 -532  0
-551 531  0
-551 532  0
552 -533 -534  0
-552 533  0
-552 534  0
-553 535 536  0
553 -535  0
553 -536  0
-554 -13 537  0
554 13  0
554 -537  0
-555 13 537  0
555 -13  0
555 -537  0
556 -537 254  0
-556 537  0
-556 -254  0
557 4 -538  0
-557 -4  0
-557 538  0
558 -4 -539  0
-558 4  0
-558 539  0
559 4 -539  0
-559 -4  0
-559 539  0
560 -4 -538  0
-560 4  0
-560 538  0
561 -4 -541  0
-561 4  0
-561 541  0
562 4 -542  0
-562 -4  0
-562 542  0
563 4 -541  0
-563 -4  0
-563 541  0
564 -4 -542  0
-564 4  0
-564 542  0
-565 -14 544  0
565 14  0
565 -544  0
-566 14 545  0
566 -14  0
566 -545  0
-567 14 544  0
567 -14  0
567 -544  0
-568 -14 545  0
568 14  0
568 -545  0
569 -548 -549  0
-569 548  0
-569 549  0
-570 550 551  0
570 -550  0
570 -551  0
-571 -551 -550  0
571 551  0
571 550  0
-572 552 553  0
572 -552  0
572 -553  0
-573 -553 -552  0
573 553  0
573 552  0
574 -4 -554  0
-574 4  0
-574 554  0
575 4 -555  0
-575 -4  0
-575 555  0
576 4 -554  0
-576 -4  0
-576 554  0
577 -4 -555  0
-577 4  0
-577 555  0
-578 557 558  0
578 -557  0
578 -558  0
-579 559 560  0
579 -559  0
579 -560  0
-580 561 562  0
580 -561  0
580 -562  0
-581 563 564  0
581 -563  0
581 -564  0
582 -565 -566  0
-582 565  0
-582 566  0
583 -567 -568  0
-583 567  0
-583 568  0
-584 569 271  0
584 -569  0
584 -271  0
585 -570 -571  0
-585 570  0
-585 571  0
586 -572 -573  0
-586 572  0
-586 573  0
-587 574 575  0
587 -574  0
587 -575  0
-588 576 577  0
588 -576  0
588 -577  0
589 -254 -578  0
-589 254  0
-589 578  0
590 -579 -257  0
-590 579  0
-590 257  0
591 7 -580  0
-591 -7  0
-591 580  0
592 -7 -580  0
-592 7  0
-592 580  0
593 -581 263  0
-593 581  0
-593 -263  0
-594 6 582  0
594 -6  0
594 -582  0
-595 -6 582  0
595 6  0
595 -582  0
-596 6 583  0
596 -6  0
596 -583  0
-597 -6 583  0
597 6  0
597 -583  0
598 -584 -506  0
-598 584  0
-598 506  0
599 -585 -586  0
-599 585  0
-599 586  0
600 -587 -254  0
-600 587  0
-600 254  0
-601 588 -254  0
601 -588  0
601 254  0
-602 589 540  0
602 -589  0
602 -540  0
603 339 -590  0
-603 -339  0
-603 590  0
604 9 -591  0
-604 -9  0
-604 591  0
605 -9 -592  0
-605 9  0
-605 592  0
-606 543 593  0
606 -543  0
606 -593  0
-607 8 594  0
607 -8  0
607 -594  0
-608 -8 595  0
608 8  0
608 -595  0
609 -546 -596  0
-609 546  0
-609 596  0
610 -547 -597  0
-610 547  0
-610 597  0
-611 600 556  0
611 -600  0
611 -556  0
612 -601 339  0
-612 601  0
-612 -339  0
613 -339 -602  0
-613 339  0
-613 602  0
-614 604 605  0
614 -604  0
614 -605  0
615 -10 -606  0
-615 10  0
-615 606  0
616 10 -606  0
-616 -10  0
-616 606  0
617 -607 -608  0
-617 607  0
-617 608  0
-618 8 609  0
618 -8  0
618 -609  0
-619 -8 610  0
619 8  0
619 -610  0
620 -339 -611  0
-620 339  0
-620 611  0
-621 613 603  0
621 -613  0
621 -603  0
622 -258 -614  0
-622 258  0
-622 614  0
623 10 -614  0
-623 -10  0
-623 614  0
624 -10 -614  0
-624 10  0
-624 614  0
-625 617 478  0
625 -617  0
625 -478  0
626 -618 -619  0
-626 618  0
-626 619  0
-627 620 612  0
627 -620  0
627 -612  0
-628 623 615  0
628 -623  0
628 -615  0
-629 616 624  0
629 -616  0
629 -624  0
-630 -478 626  0
630 478  0
630 -626  0
631 -1 -628  0
-631 1  0
-631 628  0
632 1 -629  0
-632 -1  0
-632 629  0
633 -625 -630  0
-633 625  0
-633 630  0
-634 631 632  0
634 -631  0
634 -632  0
635 -634 258  0
-635 634  0
-635 -258  0
-636 622 635  0
636 -622  0
636 -635  0
-637 621 636  0
637 -621  0
637 -636  0
-638 -621 -636  0
638 621  0
638 636  0
-639 636 627  0
639 -636  0
639 -627  0
-640 -627 -636  0
640 627  0
640 636  0
641 -637 -638  0
-641 637  0
-641 638  0
642 -639 -640  0
-642 639  0
-642 640  0
-643 8 641  0
643 -8  0
643 -641  0
-644 -8 641  0
644 8  0
644 -641  0
-645 -252 641  0
645 252  0
645 -641  0
-646 598 641  0
646 -598  0
646 -641  0
-647 642 -252  0
647 -642  0
647 252  0
648 -8 -642  0
-648 8  0
-648 642  0
649 8 -642  0
-649 -8  0
-649 642  0
-650 642 598  0
650 -642  0
650 -598  0
-651 5 643  0
651 -5  0
651 -643  0
-652 -5 644  0
652 5  0
652 -644  0
-653 -5 643  0
653 5  0
653 -643  0
-654 5 644  0
654 -5  0
654 -644  0
-655 5 648  0
655 -5  0
655 -648  0
-656 -5 649  0
656 5  0
656 -649  0
-657 5 649  0
657 -5  0
657 -649  0
-658 -5 648  0
658 5  0
658 -648  0
659 -651 -652  0
-659 651  0
-659 652  0
660 -653 -654  0
-660 653  0
-660 654  0
661 -655 -656  0
-661 655  0
-661 656  0
662 -657 -658  0
-662 657  0
-662 658  0
-663 252 659  0
663 -252  0
663 -659  0
-664 660 252  0
664 -660  0
664 -252  0
-665 661 252  0
665 -661  0
665 -252  0
666 -662 -336  0
-666 662  0
-666 336  0
-667 663 476  0
667 -663  0
667 -476  0
668 -645 -664  0
-668 645  0
-668 664  0
-669 -476 663  0
669 476  0
669 -663  0
670 -647 -665  0
-670 647  0
-670 665  0
-671 666 476  0
671 -666  0
671 -476  0
-672 -476 666  0
672 476  0
672 -666  0
-673 -476 668  0
673 476  0
673 -668  0
-674 668 476  0
674 -668  0
674 -476  0
-675 -476 670  0
675 476  0
675 -670  0
-676 670 476  0
676 -670  0
676 -476  0
677 -667 -673  0
-677 667  0
-677 673  0
678 -674 -669  0
-678 674  0
-678 669  0
679 -675 -671  0
-679 675  0
-679 671  0
680 -676 -672  0
-680 676  0
-680 672  0
-681 251 677  0
681 -251  0
681 -677  0
-682 12 677  0
682 -12  0
682 -677  0
-683 -12 677  0
683 12  0
683 -677  0
-684 -598 678  0
684 598  0
684 -678  0
-685 251 679  0
685 -251  0
685 -679  0
686 -12 -679  0
-686 12  0
-686 679  0
687 12 -679  0
-687 -12  0
-687 679  0
-688 -598 680  0
688 598  0
688 -680  0
-689 -6 682  0
689 6  0
689 -682  0
-690 6 683  0
690 -6  0
690 -683  0
-691 -6 683  0
691 6  0
691 -683  0
-692 6 682  0
692 -6  0
692 -682  0
693 -646 -684  0
-693 646  0
-693 684  0
-694 6 686  0
694 -6  0
694 -686  0
-695 -6 687  0
695 6  0
695 -687  0
-696 6 687  0
696 -6  0
696 -687  0
-697 -6 686  0
697 6  0
697 -686  0
698 -650 -688  0
-698 650  0
-698 688  0
699 -689 -690  0
-699 689  0
-699 690  0
700 -691 -692  0
-700 691  0
-700 692  0
-701 693 -633  0
701 -693  0
701 633  0
702 -694 -695  0
-702 694  0
-702 695  0
703 -696 -697  0
-703 696  0
-703 697  0
-704 -633 698  0
704 633  0
704 -698  0
-705 -251 699  0
705 251  0
705 -699  0
-706 265 700  0
706 -265  0
706 -700  0
-707 -251 702  0
707 251  0
707 -702  0
708 -251 -703  0
-708 251  0
-708 703  0
709 -681 -705  0
-709 681  0
-709 705  0
-710 706 -472  0
710 -706  0
710 472  0
711 -685 -707  0
-711 685  0
-711 707  0
-712 -472 708  0
712 472  0
712 -708  0
-713 472 709  0
713 -472  0
713 -709  0
-714 711 472  0
714 -711  0
714 -472  0
715 -713 -710  0
-715 713  0
-715 710  0
716 -714 -712  0
-716 714  0
-716 712  0
-717 715 633  0
717 -715  0
717 -633  0
-718 633 716  0
718 -633  0
718 -716  0
719 -717 -701  0
-719 717  0
-719 701  0
720 -718 -704  0
-720 718  0
-720 704  0
-721 719 599  0
721 -719  0
721 -599  0
-722 720 -599  0
722 -720  0
722 599  0
723 -721 -722  0
-723 721  0
-723 722  0
